20
20
17 11 10 5 13 9 4 14 0 19 3 16 7 15 8 2 6 18 12
19 1 2 14 8 12 10 9 6 16 0 3 5
14 0 13 3 7 12 2 5 19 17 15 11 10 18 9 6 1 16
7 19 15 14
16 18 19 0 13 5 4 15 3 11 10 1 7
11 4 8 2 12 16 1 5 19 14 18
14 17 10 4 18 15 16 19 6 12 2 5 3
5 18 13 0 10 1 2 17 7 16 3 9 19 8
4 14 8 17 3 19 9 0 7 13 12 5 16 11 1 2 15 18
10 9
17 7 2 9 13 0
14 8 0 11 17 18 19 12 4 1 16 2 7 5 6 10 15 9 3 13
14 3 2 0 8 11 13
5 6 9 11 0 16 13 4
3 15 7 17 19 14 18 12 16
7 19 6 9 14 3 10 13 18 2 16 8 5 11
7 19 15 10 9 5 6 2 17
1 16 12 17 6 7 18 3 8 0 13 4 14
17 10 3 0 8 15 6 11 13 5 19 9 12 18 2 4 7 1 16
6 12 1 8 3 7 2 0 19
